
Gurobi 11.0.0 (linux64) logging started Wed Aug 14 22:52:51 2024

Set parameter LogFile to value "gurobi.log"
Set parameter InfUnbdInfo to value 1
Gurobi Optimizer version 11.0.0 build v11.0.0rc2 (linux64 - "Ubuntu 22.04.4 LTS")

CPU model: AMD EPYC 7V13 64-Core Processor, instruction set [SSE2|AVX|AVX2]
Thread count: 128 physical cores, 128 logical processors, using up to 32 threads

Optimize a model with 58 rows, 154 columns and 139 nonzeros
Model fingerprint: 0x5f3b2fbe
Model has 105 quadratic constraints
Model has 2 general constraints
Variable types: 42 continuous, 112 integer (0 binary)
Coefficient statistics:
  Matrix range     [1e+00, 2e+05]
  QMatrix range    [1e+00, 2e+05]
  QLMatrix range   [1e+00, 3e+05]
  Objective range  [1e+00, 1e+00]
  Bounds range     [1e+00, 3e+10]
  RHS range        [1e+00, 2e+06]
  QRHS range       [1e+00, 2e+06]
Warning: Model contains large bounds
         Consider reformulating model or setting NumericFocus parameter
         to avoid numerical issues.
Using branch priorities (all 0).
Presolve added 46 rows and 59 columns
Presolve time: 0.00s
Presolved: 380 rows, 234 columns, 2082 nonzeros
Presolved model has 8 SOS constraint(s)
Presolved model has 59 bilinear constraint(s)
Warning: Model contains variables with very large bounds participating
         in product terms.
         Presolve was not able to compute smaller bounds for these variables.
         Consider bounding these variables or reformulating the model.


Solving non-convex MIQCP

Variable types: 125 continuous, 109 integer (22 binary)

Root relaxation: objective 1.629000e+03, 113 iterations, 0.00 seconds (0.00 work units)

    Nodes    |    Current Node    |     Objective Bounds      |     Work
 Expl Unexpl |  Obj  Depth IntInf | Incumbent    BestBd   Gap | It/Node Time

     0     0 1629.00004    0   79          - 1629.00004      -     -    0s
     0     0 1631.07121    0   80          - 1631.07121      -     -    0s
H    0     0                    6.081241e+09 1631.07121   100%     -    0s
     0     0 2021.82787    0   72 6.0812e+09 2021.82787   100%     -    0s
     0     0 2021.82787    0   72 6.0812e+09 2021.82787   100%     -    0s
H    0     0                    1362826.0000 2229.75595   100%     -    0s
H    0     0                    1362008.0000 2229.75595   100%     -    0s
     0     0 2229.75595    0   74 1362008.00 2229.75595   100%     -    0s
     0     0 2448.24095    0  104 1362008.00 2448.24095   100%     -    0s
     0     0 2451.95397    0  102 1362008.00 2451.95397   100%     -    0s
     0     0 2463.71513    0  103 1362008.00 2463.71513   100%     -    0s
H    0     0                    1204734.0000 2464.81493   100%     -    0s
     0     0 2919.50221    0  105 1204734.00 2919.50221   100%     -    0s
     0     0 6223.60634    0  120 1204734.00 6223.60634  99.5%     -    0s
     0     0 7995.96643    0  121 1204734.00 7995.96643  99.3%     -    0s
     0     0 10050.2936    0  121 1204734.00 10050.2936  99.2%     -    0s
H    0     0                    326116.28418 10050.2936  96.9%     -    0s
     0     0 24478.1836    0  121 326116.284 24478.1836  92.5%     -    0s
     0     0 38677.5535    0  121 326116.284 38677.5535  88.1%     -    0s
H    0     0                    325726.28418 38677.5535  88.1%     -    0s
     0     0 59192.9427    0  113 325726.284 59192.9427  81.8%     -    0s
     0     0 80775.1265    0  113 325726.284 80775.1265  75.2%     -    0s
H    0     0                    83857.036652 80775.1265  3.68%     -    0s
     0     0 80775.6342    0  121 83857.0367 80775.6342  3.67%     -    0s
     0     0 80780.9997    0  106 83857.0367 80780.9997  3.67%     -    0s
H    0     0                    83467.036652 80780.9997  3.22%     -    0s
     0     0 80782.2350    0  106 83467.0367 80782.2350  3.22%     -    0s
     0     0 80788.2277    0  106 83467.0367 80788.2277  3.21%     -    0s
     0     0 80807.3350    0   93 83467.0367 80807.3350  3.19%     -    0s
     0     0 80815.0587    0   99 83467.0367 80815.0587  3.18%     -    0s
     0     0 80831.6974    0  108 83467.0367 80831.6974  3.16%     -    0s
     0     0 80849.5077    0  108 83467.0367 80849.5077  3.14%     -    0s
     0     0 80854.7542    0  108 83467.0367 80854.7542  3.13%     -    0s
     0     0 80868.5130    0  101 83467.0367 80868.5130  3.11%     -    0s
     0     0 80873.1570    0  107 83467.0367 80873.1570  3.11%     -    0s
     0     0 80896.1614    0   87 83467.0367 80896.1614  3.08%     -    0s
     0     0 80896.1614    0   84 83467.0367 80896.1614  3.08%     -    0s
     0     0 80922.3494    0   79 83467.0367 80922.3494  3.05%     -    0s
     0     0 80941.2329    0   90 83467.0367 80941.2329  3.03%     -    0s
     0     0 80942.7585    0   90 83467.0367 80942.7585  3.02%     -    0s
     0     0 80959.4811    0   90 83467.0367 80959.4811  3.00%     -    0s
     0     0 80973.2147    0   86 83467.0367 80973.2147  2.99%     -    0s
     0     0 80973.2147    0   59 83467.0367 80973.2147  2.99%     -    0s
H    0     0                    83059.036652 80973.2147  2.51%     -    0s
     0     0 80973.2147    0   74 83059.0367 80973.2147  2.51%     -    0s
     0     0 80973.2147    0   71 83059.0367 80973.2147  2.51%     -    0s
     0     0 80973.2147    0   77 83059.0367 80973.2147  2.51%     -    0s
     0     0 80973.2147    0   76 83059.0367 80973.2147  2.51%     -    0s
     0     0 80973.2147    0   86 83059.0367 80973.2147  2.51%     -    0s
     0     0 80973.2147    0   80 83059.0367 80973.2147  2.51%     -    0s
     0     0 80973.2147    0   83 83059.0367 80973.2147  2.51%     -    0s
     0     0 80973.2147    0   83 83059.0367 80973.2147  2.51%     -    0s
     0     0 80973.2147    0   77 83059.0367 80973.2147  2.51%     -    0s
     0     0 80973.2147    0   77 83059.0367 80973.2147  2.51%     -    0s
     0     0 80973.2147    0   77 83059.0367 80973.2147  2.51%     -    0s
     0     0 80973.2147    0   77 83059.0367 80973.2147  2.51%     -    0s
     0     0 80973.2147    0   77 83059.0367 80973.2147  2.51%     -    0s
     0     0 80973.2147    0   77 83059.0367 80973.2147  2.51%     -    0s
     0     2 80973.2147    0   77 83059.0367 80973.2147  2.51%     -    0s
H  111    84                    82244.031145 80973.2147  1.55%  18.5    1s
*  548   109              18    82222.715534 80973.2147  1.52%   8.8    1s
*  598   120              14    82198.380882 80973.2147  1.49%   8.5    1s
H 1506   142                    82184.391894 80973.2147  1.47%   5.9    1s

Cutting planes:
  Gomory: 6
  Implied bound: 7
  MIR: 45
  StrongCG: 2
  Flow cover: 2
  Zero half: 1
  RLT: 27
  Relax-and-lift: 2

Explored 2202 nodes (11793 simplex iterations) in 1.59 seconds (0.18 work units)
Thread count was 32 (of 128 available processors)

Solution count 10: 82184.4 82198.4 82222.7 ... 1.20473e+06

Optimal solution found (tolerance 1.00e-10)
Warning: max constraint violation (7.6333e-04) exceeds tolerance
Warning: max general constraint violation (7.6333e-04) exceeds tolerance
Best objective 8.218439189422e+04, best bound 8.218439189422e+04, gap 0.0000%
